p wcnf 9 23 109
109 1 2 0
109 1 4 0
109 1 5 0
109 1 6 0
109 1 8 0
109 1 9 0
109 2 3 0
109 2 6 0
109 2 7 0
109 3 6 0
109 3 7 0
109 5 6 0
109 7 8 0
109 7 9 0
8 -1 0
10 -2 0
11 -3 0
13 -4 0
12 -5 0
10 -6 0
10 -7 0
12 -8 0
12 -9 0
